s = array1d(1..225, [0, 6, 0, 0, 0, 12, 0, 3, 0, 7, 0, 2, 0, 1, 0, 0, 0, 0, 1, 0, 0, 5, 0, 11, 14, 12, 0, 0, 7, 0, 8, 0, 0, 0, 10, 11, 0, 0, 9, 0, 1, 0, 4, 0, 12, 0, 7, 1, 10, 0, 0, 0, 0, 12, 5, 0, 9, 0, 0, 0, 9, 0, 0, 5, 8, 0, 2, 0, 0, 0, 7, 6, 0, 0, 11, 0, 0, 11, 14, 12, 0, 3, 9, 0, 1, 0, 13, 0, 0, 0, 13, 0, 12, 0, 7, 5, 8, 0, 0, 0, 0, 1, 0, 10, 0, 0, 0, 0, 13, 4, 6, 9, 8, 3, 0, 0, 0, 0, 5, 0, 2, 0, 3, 0, 0, 0, 4, 7, 0, 0, 0, 0, 0, 13, 8, 0, 10, 7, 0, 0, 0, 0, 1, 0, 6, 14, 0, 3, 0, 0, 7, 8, 10, 0, 0, 0, 0, 14, 0, 0, 3, 0, 13, 0, 0, 0, 3, 0, 8, 13, 0, 0, 0, 5, 2, 0, 0, 6, 0, 7, 0, 13, 0, 0, 11, 0, 0, 0, 14, 0, 8, 0, 9, 0, 10, 12, 0, 14, 0, 2, 1, 0, 0, 0, 0, 10, 4, 0, 0, 5, 5, 0, 0, 0, 0, 2, 0, 12, 0, 0, 0, 0, 11, 14, 9]);
n = 15;
